343415
67,76,18,46,27,15,5,25,12,6,45,64,62,71,58,2,7,50,61,83,30,35,44,38,69,8,49,47,53,37,19,79,75,32,23,55,51,16,74,43,3,60,9,77,20,59,78,41,17,80,73,13,21,57,42,68,63,52,22,31,1,10,54,33,72,40,34,81,11,82,48,4,28,24,65,39,56,66,14,29,70,26,36